<number of tasks>
50

<cycle time>
1000

<order strength>
0.595


<task times>
1 191
2 206
3 20
4 275
5 230
6 192
7 100
8 105
9 41
10 190
11 100
12 64
13 58
14 324
15 60
16 22
17 123
18 134
19 161
20 191
21 68
22 246
23 226
24 153
25 211
26 93
27 209
28 207
29 71
30 209
31 134
32 26
33 180
34 302
35 59
36 73
37 128
38 131
39 240
40 114
41 292
42 114
43 141
44 26
45 331
46 128
47 115
48 156
49 120
50 105

<precedence relations>
1,6
2,6
3,6
4,6
5,6
5,7
5,8
5,9
5,10
5,11
6,12
6,13
6,14
6,15
6,16
6,17
7,33
8,33
9,17
9,18
9,19
9,21
10,19
11,17
11,24
12,33
13,21
14,18
14,19
14,22
14,34
15,18
15,19
15,22
15,23
15,24
16,19
16,20
17,20
18,33
19,43
20,22
20,23
21,22
21,23
21,24
22,43
23,25
23,27
23,28
23,30
24,25
24,26
24,27
25,32
25,42
26,28
26,30
26,32
26,34
27,29
27,31
27,44
28,33
29,43
30,35
31,34
31,35
31,45
32,33
33,36
33,37
33,38
33,39
33,40
34,41
34,42
35,41
35,42
36,44
37,45
40,45
41,43
43,46
43,47
43,48
43,49
43,50

<end>
